
Gurobi 6.0.4 (win64) logging started 06/18/15 16:03:17

Read LP format model from file C:\MT\repository\VRPTWMS\instances\mip\freight\N8-C_DV10-C_SV50_F18_8_No_1.lp
Reading time = 0.01 seconds
(null): 417 rows, 200 columns, 1659 nonzeros
Optimize a model with 417 rows, 200 columns and 1659 nonzeros
Model has 512 quadratic constraints
Coefficient statistics:
  Matrix range    [1e+00, 1e+06]
  Objective range [6e+04, 1e+07]
  Bounds range    [1e+00, 1e+06]
  RHS range       [1e+00, 1e+06]
Presolve removed 61 rows and 23 columns
Presolve time: 0.03s
Presolved: 1158 rows, 578 columns, 6111 nonzeros
Variable types: 401 continuous, 177 integer (143 binary)
Found heuristic solution: objective 8.355600e+07

Root relaxation: objective 6.972114e+06, 114 iterations, 0.01 seconds

    Nodes    |    Current Node    |     Objective Bounds      |     Work
 Expl Unexpl |  Obj  Depth IntInf | Incumbent    BestBd   Gap | It/Node Time

     0     0 6972113.69    0   33 8.3556e+07 6972113.69  91.7%     -    0s
H    0     0                    4.255890e+07 6972113.69  83.6%     -    0s
     0     0 1.1735e+07    0   28 4.2559e+07 1.1735e+07  72.4%     -    0s
H    0     0                    4.254620e+07 1.1735e+07  72.4%     -    0s
     0     0 1.1892e+07    0   34 4.2546e+07 1.1892e+07  72.0%     -    0s
     0     0 1.1922e+07    0   42 4.2546e+07 1.1922e+07  72.0%     -    0s
H    0     0                    4.235870e+07 1.1922e+07  71.9%     -    0s
     0     0 1.1951e+07    0   41 4.2359e+07 1.1951e+07  71.8%     -    0s
     0     0 1.1951e+07    0   40 4.2359e+07 1.1951e+07  71.8%     -    0s
     0     0 1.1951e+07    0   34 4.2359e+07 1.1951e+07  71.8%     -    0s
     0     2 1.1951e+07    0   34 4.2359e+07 1.1951e+07  71.8%     -    0s
*  207    59              13    4.225990e+07 1.2145e+07  71.3%   9.3    0s
H  317    92                    4.218940e+07 1.7785e+07  57.8%   8.9    0s

Cutting planes:
  Cover: 3
  Implied bound: 3
  GUB cover: 5

Explored 2712 nodes (33742 simplex iterations) in 1.57 seconds
Thread count was 2 (of 4 available processors)

Optimal solution found (tolerance 1.00e-04)
Best objective 4.218940000000e+07, best bound 4.218940000000e+07, gap 0.0%
k_c1	100000.0
k_c2	100000.0
k_c3	100000.0
k_c4	40000.0
k_c5	50000.0
k_c6	80000.0
k_c7	28000.0
k_c8	50000.0
k_dN	-0.0
o_1	-0.0
o_2	0.0
o_3	0.0
o_4	0.0
o_5	0.0
o_6	0.0
o_7	-0.0
o_8	-0.0
p_1	-0.0
p_2	-0.0
p_3	0.0
p_4	0.0
p_5	0.0
p_6	0.0
p_7	-0.0
p_8	0.0
phi_c1	170681.0
phi_c2	38869.0
phi_c3	168978.0
phi_c4	21261.0
phi_c5	3900.0
phi_c6	27496.0
phi_c7	16524.0
phi_c8	20125.0
phi_d0	180000.0
phi_dN	-0.0
tauD_c1	250000.0
tauD_c2	100000.0
tauD_c3	100000.0
tauD_c4	300000.0
tauD_c5	719435.0
tauD_c6	267675.0
tauD_c7	700000.0
tauD_c8	450000.0
tauD_d0	-0.0
tauD_dN	1000000.0
tauS_c1	885175.0
tauS_c2	859800.0
tauS_c3	895375.0
tauS_c4	840550.0
tauS_c5	905425.0
tauS_c6	818850.0
tauS_c7	858250.0
tauS_c8	852075.0
tauS_d0	-0.0
tauS_dN	1000000.0
x_c1_c8	1.0
x_c2_c6	1.0
x_c3_c4	1.0
x_c4_dN	1.0
x_c5_dN	1.0
x_c6_c7	1.0
x_c7_dN	1.0
x_c8_dN	1.0
x_d0_c1	1.0
x_d0_c2	1.0
x_d0_c3	1.0
x_d0_c5	1.0
